15304.81,45.5,51.69
14378.21,48.43,55.02
14521.31,47.96,54.48
15189.01,45.85,52.08
18065.66,38.55,43.79
15632.06,44.55,50.61
15533.98,44.83,50.93
15666.36,44.45,50.5
15107.81,46.1,52.36
14588.25,47.74,54.23
15244.82,45.68,51.89
14083.59,49.45,56.17
14775.63,47.13,53.54
16294.05,42.74,48.55
16424.31,42.4,48.17
14460.18,48.16,54.71
16311.22,42.7,48.5
15227.67,45.73,51.95
16125.0,43.19,49.06
16143.51,43.14,49.01
